\ LP format - for model browsing. Use MPS format to capture full model detail.
Minimize
  0 B30(0) + 0 B31(0) + 0 B35(0) + 0 B36(0) + 0 B37(0) + 0 B38(0) + 0 B39(0)
   + 0 B41(0) + 0 B45(0) + 0 B46(0) + 0 B47(0) + 0 B50(0) + 0 B51(0)
   + 0 B55(0) + 0 B59(0) + 0 B61(0) + 0 B62(0) + 0 B67(0) + 0 B71(0)
   + 0 B72(0) + 0 B73(0) + 0 B75(0) + 0 B76(0) + 0 B77(0) + 0 B78(0)
   + 0 B80(0) + 0 B81(0) + 0 B83(0) + 0 B85(0) + 0 B87(0) + 0 B90(0)
   + 0 B91(0) + 0 B92(0) + 0 B94(0) + 0 B95(0) + 0 B96(0) + 0 B98(0)
   + 0 B100(0) + 0 B102(0) + 0 B105(0) + 0 B106(0) + 0 B107(0) + 0 B108(0)
   + 0 B109(0) + 0 B110(0) + 0 B117(0) + 0 B118(0) + 0 B120(0) + 0 B121(0)
   + 0 B122(0) + 0 B123(0) + 0 B124(0) + 0 B125(0) + 0 B126(0) + 0 B132(0)
   + 0 B133(0) + 0 B135(0) + 0 B136(0) + 0 B137(0) + 0 B138(0) + 0 B139(0)
   + 0 B140(0) + 0 B142(0) + 0 B143(0) + 0 B145(0) + 0 B147(0) + 0 B149(0)
   + 0 B150(0) + 0 B151(0) + 0 B152(0) + 0 B153(0) + 0 B154(0) + 0 B155(0)
   + 0 B157(0) + 0 B158(0) + 0 B161(0) + 0 B163(0) + 0 B165(0) + 0 B166(0)
   + 0 B167(0) + 0 B168(0) + 0 B169(0) + 0 B170(0) + 0 B171(0) + 0 B172(0)
   + 0 B173(0) + 0 B174(0) + 0 B177(0) + 0 B180(0) + 0 B181(0) + 0 B182(0)
   + 0 B183(0) + 0 B184(0) + 0 B185(0) + 0 B186(0) + 0 B187(0) + 0 B188(0)
   + 0 B190(0) + 0 B191(0) + 0 B195(0) + 0 B196(0) + 0 B197(0) + 0 B198(0)
   + 0 B199(0) + 0 B200(0) + 0 B201(0) + 0 B202(0) + 0 B203(0) + 0 B205(0)
   + 0 B206(0) + 0 B207(0) + 0 B209(0) + 0 B210(0) + 0 B211(0) + 0 B212(0)
   + 0 B213(0) + 0 B214(0) + 0 B215(0) + 0 B216(0) + 0 B217(0) + 0 B218(0)
   + 0 B219(0) + 0 B220(0) + 0 B221(0) + 0 B222(0) + 0 B224(0) + 0 B225(0)
   + 0 B226(0) + 0 B227(0) + 0 B228(0) + 0 B229(0) + 0 B230(0) + 0 B231(0)
   + 0 B232(0) + 0 B233(0) + 0 B234(0) + 0 B235(0) + 0 B236(0) + 0 B238(0)
   + 0 B239(0) + 0 B240(0) + 0 B241(0) + 0 B242(0) + 0 B243(0) + 0 B244(0)
   + 0 B245(0) + 0 B246(0) + 0 B247(0) + 0 B248(0) + 0 B249(0) + 0 B250(0)
   + 0 B251(0) + 0 B252(0) + 0 B253(0) + 0 B254(0) + I285(1)
Subject To
 c0: B0(15) + B1(11) = 1
 c1: B2(8) + B3(16) = 1
 c2: B4(13) + B5(15) = 1
 c3: B6(19) + B7(15) = 1
 c4: B8(18) + B9(14) = 1
 c5: B10(10) + B11(16) = 1
 c6: B12(13) + B13(19) = 1
 c7: B14(12) + B15(16) = 1
 c8: B16(8) + B17(18) = 1
 c9: B18(18) + B19(18) = 1
 c10: B20(17) + B21(9) = 1
 c11: B22(9) + B23(17) = 1
 c12: B24(8) + B25(12) = 1
 c13: B26(16) + B27(12) = 1
 c14: B28(12) + B29(16) = 1
 c15: - 1e+06 B0(15) + C255(18) <= 0
 c16: - 1e+06 B1(11) + C256(14) <= 0
 c17: - 1e+06 B2(8) + C257(8) <= 0
 c18: - 1e+06 B3(16) + C258(16) <= 0
 c19: - 1e+06 B4(13) + C259(14) <= 0
 c20: - 1e+06 B5(15) + C260(16) <= 0
 c21: - 1e+06 B6(19) + C261(21) <= 0
 c22: - 1e+06 B7(15) + C262(17) <= 0
 c23: - 1e+06 B8(18) + C263(19) <= 0
 c24: - 1e+06 B9(14) + C264(15) <= 0
 c25: - 1e+06 B10(10) + C265(10) <= 0
 c26: - 1e+06 B11(16) + C266(16) <= 0
 c27: - 1e+06 B12(13) + C267(15) <= 0
 c28: - 1e+06 B13(19) + C268(21) <= 0
 c29: - 1e+06 B14(12) + C269(12) <= 0
 c30: - 1e+06 B15(16) + C270(16) <= 0
 c31: - 1e+06 B16(8) + C271(9) <= 0
 c32: - 1e+06 B17(18) + C272(19) <= 0
 c33: - 1e+06 B18(18) + C273(21) <= 0
 c34: - 1e+06 B19(18) + C274(21) <= 0
 c35: - 1e+06 B20(17) + C275(19) <= 0
 c36: - 1e+06 B21(9) + C276(11) <= 0
 c37: - 1e+06 B22(9) + C277(10) <= 0
 c38: - 1e+06 B23(17) + C278(18) <= 0
 c39: - 1e+06 B24(8) + C279(11) <= 0
 c40: - 1e+06 B25(12) + C280(15) <= 0
 c41: - 1e+06 B26(16) + C281(17) <= 0
 c42: - 1e+06 B27(12) + C282(13) <= 0
 c43: - 1e+06 B28(12) + C283(12) <= 0
 c44: - 1e+06 B29(16) + C284(16) <= 0
 c45: - 1e+06 B0(15) - 1e+06 B4(13) - 1e+06 B32(2) + C255(18) - C259(14)
   >= -2.999989e+06
 c46: - 1e+06 B0(15) - 1e+06 B4(13) + 1e+06 B32(2) - C255(18) + C259(14)
   >= -1.999978e+06
 c47: - 1e+06 B0(15) - 1e+06 B7(15) - 1e+06 B33(2) + C255(18) - C262(17)
   >= -2.999987e+06
 c48: - 1e+06 B0(15) - 1e+06 B7(15) + 1e+06 B33(2) - C255(18) + C262(17)
   >= -1.99999e+06
 c49: - 1e+06 B0(15) - 1e+06 B9(14) - 1e+06 B34(2) + C255(18) - C264(15)
   >= -2.999993e+06
 c50: - 1e+06 B0(15) - 1e+06 B9(14) + 1e+06 B34(2) - C255(18) + C264(15)
   >= -1.999973e+06
 c51: - 1e+06 B1(11) - 1e+06 B21(9) - 1e+06 B40(2) + C256(14) - C276(11)
   >= -2.999991e+06
 c52: - 1e+06 B1(11) - 1e+06 B21(9) + 1e+06 B40(2) - C256(14) + C276(11)
   >= -1.999987e+06
 c53: - 1e+06 B1(11) - 1e+06 B25(12) - 1e+06 B42(2) + C256(14) - C280(15)
   >= -2.999994e+06
 c54: - 1e+06 B1(11) - 1e+06 B25(12) + 1e+06 B42(2) - C256(14) + C280(15)
   >= -1.999987e+06
 c55: - 1e+06 B1(11) - 1e+06 B27(12) - 1e+06 B43(2) + C256(14) - C282(13)
   >= -2.99998e+06
 c56: - 1e+06 B1(11) - 1e+06 B27(12) + 1e+06 B43(2) - C256(14) + C282(13)
   >= -1.99999e+06
 c57: - 1e+06 B0(15) - 1e+06 B28(12) - 1e+06 B44(2) + C255(18) - C283(12)
   >= -2.999993e+06
 c58: - 1e+06 B0(15) - 1e+06 B28(12) + 1e+06 B44(2) - C255(18) + C283(12)
   >= -1.999994e+06
 c59: - 1e+06 B3(16) - 1e+06 B6(19) - 1e+06 B48(2) + C258(16) - C261(21)
   >= -2.99999e+06
 c60: - 1e+06 B3(16) - 1e+06 B6(19) + 1e+06 B48(2) - C258(16) + C261(21)
   >= -1.999992e+06
 c61: - 1e+06 B3(16) - 1e+06 B8(18) - 1e+06 B49(2) + C258(16) - C263(19)
   >= -2.999996e+06
 c62: - 1e+06 B3(16) - 1e+06 B8(18) + 1e+06 B49(2) - C258(16) + C263(19)
   >= -1.999991e+06
 c63: - 1e+06 B3(16) - 1e+06 B15(16) - 1e+06 B52(2) + C258(16) - C270(16)
   >= -2.999976e+06
 c64: - 1e+06 B3(16) - 1e+06 B15(16) + 1e+06 B52(2) - C258(16) + C270(16)
   >= -1.999976e+06
 c65: - 1e+06 B2(8) - 1e+06 B16(8) - 1e+06 B53(2) + C257(8) - C271(9)
   >= -2.999994e+06
 c66: - 1e+06 B2(8) - 1e+06 B16(8) + 1e+06 B53(2) - C257(8) + C271(9)
   >= -1.99998e+06
 c67: - 1e+06 B3(16) - 1e+06 B18(18) - 1e+06 B54(2) + C258(16) - C273(21)
   >= -2.999994e+06
 c68: - 1e+06 B3(16) - 1e+06 B18(18) + 1e+06 B54(2) - C258(16) + C273(21)
   >= -1.999986e+06
 c69: - 1e+06 B3(16) - 1e+06 B23(17) - 1e+06 B56(2) + C258(16) - C278(18)
   >= -2.999983e+06
 c70: - 1e+06 B3(16) - 1e+06 B23(17) + 1e+06 B56(2) - C258(16) + C278(18)
   >= -1.999976e+06
 c71: - 1e+06 B2(8) - 1e+06 B24(8) - 1e+06 B57(2) + C257(8) - C279(11)
   >= -2.999995e+06
 c72: - 1e+06 B2(8) - 1e+06 B24(8) + 1e+06 B57(2) - C257(8) + C279(11)
   >= -1.999975e+06
 c73: - 1e+06 B3(16) - 1e+06 B26(16) - 1e+06 B58(2) + C258(16) - C281(17)
   >= -2.99999e+06
 c74: - 1e+06 B3(16) - 1e+06 B26(16) + 1e+06 B58(2) - C258(16) + C281(17)
   >= -1.99999e+06
 c75: - 1e+06 B0(15) - 1e+06 B4(13) - 1e+06 B60(2) - C255(18) + C259(14)
   >= -2.999978e+06
 c76: - 1e+06 B0(15) - 1e+06 B4(13) + 1e+06 B60(2) + C255(18) - C259(14)
   >= -1.999989e+06
 c77: - 1e+06 B4(13) - 1e+06 B7(15) - 1e+06 B63(2) + C259(14) - C262(17)
   >= -2.999993e+06
 c78: - 1e+06 B4(13) - 1e+06 B7(15) + 1e+06 B63(2) - C259(14) + C262(17)
   >= -1.999991e+06
 c79: - 1e+06 B4(13) - 1e+06 B9(14) - 1e+06 B64(2) + C259(14) - C264(15)
   >= -2.999986e+06
 c80: - 1e+06 B4(13) - 1e+06 B9(14) + 1e+06 B64(2) - C259(14) + C264(15)
   >= -1.999992e+06
 c81: - 1e+06 B5(15) - 1e+06 B11(16) - 1e+06 B65(2) + C260(16) - C266(16)
   >= -2.999983e+06
 c82: - 1e+06 B5(15) - 1e+06 B11(16) + 1e+06 B65(2) - C260(16) + C266(16)
   >= -1.999988e+06
 c83: - 1e+06 B5(15) - 1e+06 B13(19) - 1e+06 B66(2) + C260(16) - C268(21)
   >= -2.99999e+06
 c84: - 1e+06 B5(15) - 1e+06 B13(19) + 1e+06 B66(2) - C260(16) + C268(21)
   >= -1.999982e+06
 c85: - 1e+06 B5(15) - 1e+06 B17(18) - 1e+06 B68(2) + C260(16) - C272(19)
   >= -2.999994e+06
 c86: - 1e+06 B5(15) - 1e+06 B17(18) + 1e+06 B68(2) - C260(16) + C272(19)
   >= -1.999995e+06
 c87: - 1e+06 B5(15) - 1e+06 B19(18) - 1e+06 B69(2) + C260(16) - C274(21)
   >= -2.999991e+06
 c88: - 1e+06 B5(15) - 1e+06 B19(18) + 1e+06 B69(2) - C260(16) + C274(21)
   >= -1.999991e+06
 c89: - 1e+06 B5(15) - 1e+06 B20(17) - 1e+06 B70(2) + C260(16) - C275(19)
   >= -2.999991e+06
 c90: - 1e+06 B5(15) - 1e+06 B20(17) + 1e+06 B70(2) - C260(16) + C275(19)
   >= -1.999995e+06
 c91: - 1e+06 B4(13) - 1e+06 B28(12) - 1e+06 B74(4) + C259(14) - C283(12)
   >= -2.999981e+06
 c92: - 1e+06 B4(13) - 1e+06 B28(12) + 1e+06 B74(4) - C259(14) + C283(12)
   >= -1.999993e+06
 c93: - 1e+06 B5(15) - 1e+06 B29(16) - 1e+06 B74(4) + C260(16) - C284(16)
   >= -2.999993e+06
 c94: - 1e+06 B5(15) - 1e+06 B29(16) + 1e+06 B74(4) - C260(16) + C284(16)
   >= -1.999993e+06
 c95: - 1e+06 B6(19) - 1e+06 B8(18) - 1e+06 B79(4) + C261(21) - C263(19)
   >= -2.999986e+06
 c96: - 1e+06 B6(19) - 1e+06 B8(18) + 1e+06 B79(4) - C261(21) + C263(19)
   >= -1.999992e+06
 c97: - 1e+06 B7(15) - 1e+06 B9(14) - 1e+06 B79(4) + C262(17) - C264(15)
   >= -2.999986e+06
 c98: - 1e+06 B7(15) - 1e+06 B9(14) + 1e+06 B79(4) - C262(17) + C264(15)
   >= -1.99999e+06
 c99: - 1e+06 B6(19) - 1e+06 B15(16) - 1e+06 B82(2) + C261(21) - C270(16)
   >= -2.999986e+06
 c100: - 1e+06 B6(19) - 1e+06 B15(16) + 1e+06 B82(2) - C261(21) + C270(16)
   >= -1.999986e+06
 c101: - 1e+06 B6(19) - 1e+06 B18(18) - 1e+06 B84(2) + C261(21) - C273(21)
   >= -2.999995e+06
 c102: - 1e+06 B6(19) - 1e+06 B18(18) + 1e+06 B84(2) - C261(21) + C273(21)
   >= -1.99999e+06
 c103: - 1e+06 B6(19) - 1e+06 B23(17) - 1e+06 B86(2) + C261(21) - C278(18)
   >= -2.999986e+06
 c104: - 1e+06 B6(19) - 1e+06 B23(17) + 1e+06 B86(2) - C261(21) + C278(18)
   >= -1.999992e+06
 c105: - 1e+06 B6(19) - 1e+06 B26(16) - 1e+06 B88(2) + C261(21) - C281(17)
   >= -2.999989e+06
 c106: - 1e+06 B6(19) - 1e+06 B26(16) + 1e+06 B88(2) - C261(21) + C281(17)
   >= -1.999984e+06
 c107: - 1e+06 B7(15) - 1e+06 B28(12) - 1e+06 B89(2) + C262(17) - C283(12)
   >= -2.999976e+06
 c108: - 1e+06 B7(15) - 1e+06 B28(12) + 1e+06 B89(2) - C262(17) + C283(12)
   >= -1.999983e+06
 c109: - 1e+06 B6(19) - 1e+06 B8(18) - 1e+06 B93(4) - C261(21) + C263(19)
   >= -2.999992e+06
 c110: - 1e+06 B6(19) - 1e+06 B8(18) + 1e+06 B93(4) + C261(21) - C263(19)
   >= -1.999986e+06
 c111: - 1e+06 B7(15) - 1e+06 B9(14) - 1e+06 B93(4) - C262(17) + C264(15)
   >= -2.99999e+06
 c112: - 1e+06 B7(15) - 1e+06 B9(14) + 1e+06 B93(4) + C262(17) - C264(15)
   >= -1.999986e+06
 c113: - 1e+06 B8(18) - 1e+06 B15(16) - 1e+06 B97(2) + C263(19) - C270(16)
   >= -2.999991e+06
 c114: - 1e+06 B8(18) - 1e+06 B15(16) + 1e+06 B97(2) - C263(19) + C270(16)
   >= -1.999986e+06
 c115: - 1e+06 B8(18) - 1e+06 B18(18) - 1e+06 B99(2) + C263(19) - C273(21)
   >= -2.999989e+06
 c116: - 1e+06 B8(18) - 1e+06 B18(18) + 1e+06 B99(2) - C263(19) + C273(21)
   >= -1.999993e+06
 c117: - 1e+06 B8(18) - 1e+06 B23(17) - 1e+06 B101(2) + C263(19) - C278(18)
   >= -2.99999e+06
 c118: - 1e+06 B8(18) - 1e+06 B23(17) + 1e+06 B101(2) - C263(19) + C278(18)
   >= -1.999994e+06
 c119: - 1e+06 B8(18) - 1e+06 B26(16) - 1e+06 B103(2) + C263(19) - C281(17)
   >= -2.999989e+06
 c120: - 1e+06 B8(18) - 1e+06 B26(16) + 1e+06 B103(2) - C263(19) + C281(17)
   >= -1.999978e+06
 c121: - 1e+06 B9(14) - 1e+06 B28(12) - 1e+06 B104(2) + C264(15) - C283(12)
   >= -2.999987e+06
 c122: - 1e+06 B9(14) - 1e+06 B28(12) + 1e+06 B104(2) - C264(15) + C283(12)
   >= -1.999978e+06
 c123: - 1e+06 B10(10) - 1e+06 B12(13) - 1e+06 B111(4) + C265(10)
   - C267(15) >= -2.999992e+06
 c124: - 1e+06 B10(10) - 1e+06 B12(13) + 1e+06 B111(4) - C265(10)
   + C267(15) >= -1.999987e+06
 c125: - 1e+06 B11(16) - 1e+06 B13(19) - 1e+06 B111(4) + C266(16)
   - C268(21) >= -2.999989e+06
 c126: - 1e+06 B11(16) - 1e+06 B13(19) + 1e+06 B111(4) - C266(16)
   + C268(21) >= -1.999992e+06
 c127: - 1e+06 B10(10) - 1e+06 B14(12) - 1e+06 B112(2) + C265(10)
   - C269(12) >= -2.999985e+06
 c128: - 1e+06 B10(10) - 1e+06 B14(12) + 1e+06 B112(2) - C265(10)
   + C269(12) >= -1.999975e+06
 c129: - 1e+06 B11(16) - 1e+06 B17(18) - 1e+06 B113(2) + C266(16)
   - C272(19) >= -2.999983e+06
 c130: - 1e+06 B11(16) - 1e+06 B17(18) + 1e+06 B113(2) - C266(16)
   + C272(19) >= -1.999992e+06
 c131: - 1e+06 B11(16) - 1e+06 B19(18) - 1e+06 B114(2) + C266(16)
   - C274(21) >= -2.999977e+06
 c132: - 1e+06 B11(16) - 1e+06 B19(18) + 1e+06 B114(2) - C266(16)
   + C274(21) >= -1.999982e+06
 c133: - 1e+06 B11(16) - 1e+06 B20(17) - 1e+06 B115(2) + C266(16)
   - C275(19) >= -2.999993e+06
 c134: - 1e+06 B11(16) - 1e+06 B20(17) + 1e+06 B115(2) - C266(16)
   + C275(19) >= -1.999978e+06
 c135: - 1e+06 B10(10) - 1e+06 B22(9) - 1e+06 B116(2) + C265(10) - C277(10)
   >= -2.99999e+06
 c136: - 1e+06 B10(10) - 1e+06 B22(9) + 1e+06 B116(2) - C265(10) + C277(10)
   >= -1.999986e+06
 c137: - 1e+06 B11(16) - 1e+06 B29(16) - 1e+06 B119(2) + C266(16)
   - C284(16) >= -2.999991e+06
 c138: - 1e+06 B11(16) - 1e+06 B29(16) + 1e+06 B119(2) - C266(16)
   + C284(16) >= -1.999983e+06
 c139: - 1e+06 B12(13) - 1e+06 B14(12) - 1e+06 B127(2) + C267(15)
   - C269(12) >= -2.999989e+06
 c140: - 1e+06 B12(13) - 1e+06 B14(12) + 1e+06 B127(2) - C267(15)
   + C269(12) >= -1.99997e+06
 c141: - 1e+06 B13(19) - 1e+06 B17(18) - 1e+06 B128(2) + C268(21)
   - C272(19) >= -2.999986e+06
 c142: - 1e+06 B13(19) - 1e+06 B17(18) + 1e+06 B128(2) - C268(21)
   + C272(19) >= -1.999993e+06
 c143: - 1e+06 B13(19) - 1e+06 B19(18) - 1e+06 B129(2) + C268(21)
   - C274(21) >= -2.999991e+06
 c144: - 1e+06 B13(19) - 1e+06 B19(18) + 1e+06 B129(2) - C268(21)
   + C274(21) >= -1.999973e+06
 c145: - 1e+06 B13(19) - 1e+06 B20(17) - 1e+06 B130(2) + C268(21)
   - C275(19) >= -2.999991e+06
 c146: - 1e+06 B13(19) - 1e+06 B20(17) + 1e+06 B130(2) - C268(21)
   + C275(19) >= -1.999995e+06
 c147: - 1e+06 B12(13) - 1e+06 B22(9) - 1e+06 B131(2) + C267(15) - C277(10)
   >= -2.999979e+06
 c148: - 1e+06 B12(13) - 1e+06 B22(9) + 1e+06 B131(2) - C267(15) + C277(10)
   >= -1.999987e+06
 c149: - 1e+06 B13(19) - 1e+06 B29(16) - 1e+06 B134(2) + C268(21)
   - C284(16) >= -2.999986e+06
 c150: - 1e+06 B13(19) - 1e+06 B29(16) + 1e+06 B134(2) - C268(21)
   + C284(16) >= -1.999989e+06
 c151: - 1e+06 B12(13) - 1e+06 B14(12) - 1e+06 B141(2) - C267(15)
   + C269(12) >= -2.99997e+06
 c152: - 1e+06 B12(13) - 1e+06 B14(12) + 1e+06 B141(2) + C267(15)
   - C269(12) >= -1.999989e+06
 c153: - 1e+06 B15(16) - 1e+06 B18(18) - 1e+06 B144(2) + C270(16)
   - C273(21) >= -2.999972e+06
 c154: - 1e+06 B15(16) - 1e+06 B18(18) + 1e+06 B144(2) - C270(16)
   + C273(21) >= -1.999992e+06
 c155: - 1e+06 B14(12) - 1e+06 B22(9) - 1e+06 B146(4) + C269(12) - C277(10)
   >= -2.999989e+06
 c156: - 1e+06 B14(12) - 1e+06 B22(9) + 1e+06 B146(4) - C269(12) + C277(10)
   >= -1.999977e+06
 c157: - 1e+06 B15(16) - 1e+06 B23(17) - 1e+06 B146(4) + C270(16)
   - C278(18) >= -2.99999e+06
 c158: - 1e+06 B15(16) - 1e+06 B23(17) + 1e+06 B146(4) - C270(16)
   + C278(18) >= -1.99999e+06
 c159: - 1e+06 B15(16) - 1e+06 B26(16) - 1e+06 B148(2) + C270(16)
   - C281(17) >= -2.999986e+06
 c160: - 1e+06 B15(16) - 1e+06 B26(16) + 1e+06 B148(2) - C270(16)
   + C281(17) >= -1.999992e+06
 c161: - 1e+06 B13(19) - 1e+06 B17(18) - 1e+06 B156(2) - C268(21)
   + C272(19) >= -2.999993e+06
 c162: - 1e+06 B13(19) - 1e+06 B17(18) + 1e+06 B156(2) + C268(21)
   - C272(19) >= -1.999986e+06
 c163: - 1e+06 B17(18) - 1e+06 B19(18) - 1e+06 B159(2) + C272(19)
   - C274(21) >= -2.999977e+06
 c164: - 1e+06 B17(18) - 1e+06 B19(18) + 1e+06 B159(2) - C272(19)
   + C274(21) >= -1.999996e+06
 c165: - 1e+06 B17(18) - 1e+06 B20(17) - 1e+06 B160(2) + C272(19)
   - C275(19) >= -2.999977e+06
 c166: - 1e+06 B17(18) - 1e+06 B20(17) + 1e+06 B160(2) - C272(19)
   + C275(19) >= -1.999983e+06
 c167: - 1e+06 B16(8) - 1e+06 B24(8) - 1e+06 B162(2) + C271(9) - C279(11)
   >= -2.999994e+06
 c168: - 1e+06 B16(8) - 1e+06 B24(8) + 1e+06 B162(2) - C271(9) + C279(11)
   >= -1.999992e+06
 c169: - 1e+06 B17(18) - 1e+06 B29(16) - 1e+06 B164(2) + C272(19)
   - C284(16) >= -2.999976e+06
 c170: - 1e+06 B17(18) - 1e+06 B29(16) + 1e+06 B164(2) - C272(19)
   + C284(16) >= -1.99999e+06
 c171: - 1e+06 B19(18) - 1e+06 B20(17) - 1e+06 B175(2) + C274(21)
   - C275(19) >= -2.999982e+06
 c172: - 1e+06 B19(18) - 1e+06 B20(17) + 1e+06 B175(2) - C274(21)
   + C275(19) >= -1.999977e+06
 c173: - 1e+06 B18(18) - 1e+06 B23(17) - 1e+06 B176(2) + C273(21)
   - C278(18) >= -2.999978e+06
 c174: - 1e+06 B18(18) - 1e+06 B23(17) + 1e+06 B176(2) - C273(21)
   + C278(18) >= -1.999994e+06
 c175: - 1e+06 B18(18) - 1e+06 B26(16) - 1e+06 B178(2) + C273(21)
   - C281(17) >= -2.999992e+06
 c176: - 1e+06 B18(18) - 1e+06 B26(16) + 1e+06 B178(2) - C273(21)
   + C281(17) >= -1.999989e+06
 c177: - 1e+06 B19(18) - 1e+06 B29(16) - 1e+06 B179(2) + C274(21)
   - C284(16) >= -2.999981e+06
 c178: - 1e+06 B19(18) - 1e+06 B29(16) + 1e+06 B179(2) - C274(21)
   + C284(16) >= -1.999985e+06
 c179: - 1e+06 B19(18) - 1e+06 B20(17) - 1e+06 B189(2) - C274(21)
   + C275(19) >= -2.999977e+06
 c180: - 1e+06 B19(18) - 1e+06 B20(17) + 1e+06 B189(2) + C274(21)
   - C275(19) >= -1.999982e+06
 c181: - 1e+06 B21(9) - 1e+06 B25(12) - 1e+06 B192(2) + C276(11) - C280(15)
   >= -2.999988e+06
 c182: - 1e+06 B21(9) - 1e+06 B25(12) + 1e+06 B192(2) - C276(11) + C280(15)
   >= -1.999985e+06
 c183: - 1e+06 B21(9) - 1e+06 B27(12) - 1e+06 B193(2) + C276(11) - C282(13)
   >= -2.999993e+06
 c184: - 1e+06 B21(9) - 1e+06 B27(12) + 1e+06 B193(2) - C276(11) + C282(13)
   >= -1.999993e+06
 c185: - 1e+06 B20(17) - 1e+06 B29(16) - 1e+06 B194(2) + C275(19)
   - C284(16) >= -2.999984e+06
 c186: - 1e+06 B20(17) - 1e+06 B29(16) + 1e+06 B194(2) - C275(19)
   + C284(16) >= -1.999993e+06
 c187: - 1e+06 B18(18) - 1e+06 B23(17) - 1e+06 B204(2) - C273(21)
   + C278(18) >= -2.999994e+06
 c188: - 1e+06 B18(18) - 1e+06 B23(17) + 1e+06 B204(2) + C273(21)
   - C278(18) >= -1.999978e+06
 c189: - 1e+06 B23(17) - 1e+06 B26(16) - 1e+06 B208(2) + C278(18)
   - C281(17) >= -2.999973e+06
 c190: - 1e+06 B23(17) - 1e+06 B26(16) + 1e+06 B208(2) - C278(18)
   + C281(17) >= -1.999988e+06
 c191: - 1e+06 B25(12) - 1e+06 B27(12) - 1e+06 B223(2) + C280(15)
   - C282(13) >= -2.999991e+06
 c192: - 1e+06 B25(12) - 1e+06 B27(12) + 1e+06 B223(2) - C280(15)
   + C282(13) >= -1.999976e+06
 c193: - 1e+06 B25(12) - 1e+06 B27(12) - 1e+06 B237(2) - C280(15)
   + C282(13) >= -2.999976e+06
 c194: - 1e+06 B25(12) - 1e+06 B27(12) + 1e+06 B237(2) + C280(15)
   - C282(13) >= -1.999991e+06
 c195: C255(18) >= 0
 c196: - 2 B0(15) + C255(18) >= 0
 c197: C256(14) >= 0
 c198: - 2 B1(11) + C256(14) >= 0
 c199: C257(8) >= 0
 c200: - 2 B2(8) + C257(8) >= 0
 c201: C258(16) >= 0
 c202: - 2 B3(16) + C258(16) >= 0
 c203: C259(14) >= 0
 c204: C259(14) >= 0
 c205: C260(16) >= 0
 c206: C260(16) >= 0
 c207: C261(21) >= 0
 c208: - B6(19) + C261(21) >= 0
 c209: C262(17) >= 0
 c210: - B7(15) + C262(17) >= 0
 c211: C263(19) >= 0
 c212: - 2 B8(18) + C263(19) >= 0
 c213: C264(15) >= 0
 c214: - 2 B9(14) + C264(15) >= 0
 c215: C265(10) >= 0
 c216: - B10(10) + C265(10) >= 0
 c217: C266(16) >= 0
 c218: - B11(16) + C266(16) >= 0
 c219: C267(15) >= 0
 c220: - 3 B12(13) + C267(15) >= 0
 c221: C268(21) >= 0
 c222: - 3 B13(19) + C268(21) >= 0
 c223: C269(12) >= 0
 c224: - 2 B14(12) + C269(12) >= 0
 c225: C270(16) >= 0
 c226: - 2 B15(16) + C270(16) >= 0
 c227: C271(9) >= 0
 c228: - 3 B16(8) + C271(9) >= 0
 c229: C272(19) >= 0
 c230: - 3 B17(18) + C272(19) >= 0
 c231: C273(21) >= 0
 c232: C273(21) >= 0
 c233: C274(21) >= 0
 c234: C274(21) >= 0
 c235: C275(19) >= 0
 c236: C275(19) >= 0
 c237: C276(11) >= 0
 c238: C276(11) >= 0
 c239: C277(10) >= 0
 c240: C277(10) >= 0
 c241: C278(18) >= 0
 c242: C278(18) >= 0
 c243: C279(11) >= 0
 c244: C279(11) >= 0
 c245: C280(15) >= 0
 c246: C280(15) >= 0
 c247: C281(17) >= 0
 c248: - B26(16) + C281(17) >= 0
 c249: C282(13) >= 0
 c250: - B27(12) + C282(13) >= 0
 c251: C283(12) >= 0
 c252: - B28(12) + C283(12) >= 0
 c253: C284(16) >= 0
 c254: - B29(16) + C284(16) >= 0
 c255: - 5 B2(8) - 4 B3(16) + C255(18) + C256(14) - C257(8) - C258(16)
   >= 0
 c256: - 5 B4(13) - 3 B5(15) + C255(18) + C256(14) - C259(14) - C260(16)
   >= 0
 c257: - 2 B8(18) - 2 B9(14) + C261(21) + C262(17) - C263(19) - C264(15)
   >= 0
 c258: - 5 B10(10) - 2 B11(16) + C263(19) + C264(15) - C265(10) - C266(16)
   >= 0
 c259: - 3 B14(12) - 4 B15(16) - C269(12) - C270(16) + C271(9) + C272(19)
   >= 0
 c260: - 4 B16(8) - 2 B17(18) + C267(15) + C268(21) - C271(9) - C272(19)
   >= 0
 c261: - 3 B20(17) - 3 B21(9) + C273(21) + C274(21) - C275(19) - C276(11)
   >= 0
 c262: - 5 B22(9) - 2 B23(17) + C275(19) + C276(11) - C277(10) - C278(18)
   >= 0
 c263: - 2 B26(16) - 5 B27(12) + C279(11) + C280(15) - C281(17) - C282(13)
   >= 0
 c264: - 4 B28(12) - 4 B29(16) + C281(17) + C282(13) - C283(12) - C284(16)
   >= 0
 c265: 2 B0(15) + C255(18) - 1e+06 B286(4) >= -999994
 c266: 2 B0(15) + C255(18) - 1e+06 B286(4) <= 6
 c267: 4 B1(11) + C256(14) - 1e+06 B287(4) >= -999994
 c268: 4 B1(11) + C256(14) - 1e+06 B287(4) <= 6
 c269: 4 B6(19) + C261(21) - 1e+06 B288(4) >= -999988
 c270: 4 B6(19) + C261(21) - 1e+06 B288(4) <= 12
 c271: 5 B7(15) + C262(17) - 1e+06 B289(4) >= -999988
 c272: 5 B7(15) + C262(17) - 1e+06 B289(4) <= 12
 c273: 5 B12(13) + C267(15) - 1e+06 B290(4) >= -999994
 c274: 5 B12(13) + C267(15) - 1e+06 B290(4) <= 6
 c275: 2 B13(19) + C268(21) - 1e+06 B291(4) >= -999994
 c276: 2 B13(19) + C268(21) - 1e+06 B291(4) <= 6
 c277: 3 B18(18) + C273(21) - 1e+06 B292(4) >= -999985
 c278: 3 B18(18) + C273(21) - 1e+06 B292(4) <= 15
 c279: 3 B19(18) + C274(21) - 1e+06 B293(4) >= -999985
 c280: 3 B19(18) + C274(21) - 1e+06 B293(4) <= 15
 c281: 2 B24(8) + C279(11) - 1e+06 B294(4) >= -999988
 c282: 2 B24(8) + C279(11) - 1e+06 B294(4) <= 12
 c283: 4 B25(12) + C280(15) - 1e+06 B295(4) >= -999988
 c284: 4 B25(12) + C280(15) - 1e+06 B295(4) <= 12
 qc0: I285(1) + 4 B286(4) + 2 B287(4) + 8 B288(4) + 7 B289(4) + B290(4)
   + 4 B291(4) + 12 B292(4) + 12 B293(4) + 10 B294(4) + 8 B295(4) + [
   - C255(18) * B286(4) - C256(14) * B287(4) - C261(21) * B288(4)
   - C262(17) * B289(4) - C267(15) * B290(4) - C268(21) * B291(4)
   - C273(21) * B292(4) - C274(21) * B293(4) - C279(11) * B294(4)
   - C280(15) * B295(4) ] >= 0
Bounds
Binaries
 B0(15) B1(11) B2(8) B3(16) B4(13) B5(15) B6(19) B7(15) B8(18) B9(14)
 B10(10) B11(16) B12(13) B13(19) B14(12) B15(16) B16(8) B17(18) B18(18)
 B19(18) B20(17) B21(9) B22(9) B23(17) B24(8) B25(12) B26(16) B27(12)
 B28(12) B29(16) B30(0) B31(0) B32(2) B33(2) B34(2) B35(0) B36(0) B37(0)
 B38(0) B39(0) B40(2) B41(0) B42(2) B43(2) B44(2) B45(0) B46(0) B47(0)
 B48(2) B49(2) B50(0) B51(0) B52(2) B53(2) B54(2) B55(0) B56(2) B57(2)
 B58(2) B59(0) B60(2) B61(0) B62(0) B63(2) B64(2) B65(2) B66(2) B67(0)
 B68(2) B69(2) B70(2) B71(0) B72(0) B73(0) B74(4) B75(0) B76(0) B77(0)
 B78(0) B79(4) B80(0) B81(0) B82(2) B83(0) B84(2) B85(0) B86(2) B87(0)
 B88(2) B89(2) B90(0) B91(0) B92(0) B93(4) B94(0) B95(0) B96(0) B97(2)
 B98(0) B99(2) B100(0) B101(2) B102(0) B103(2) B104(2) B105(0) B106(0)
 B107(0) B108(0) B109(0) B110(0) B111(4) B112(2) B113(2) B114(2) B115(2)
 B116(2) B117(0) B118(0) B119(2) B120(0) B121(0) B122(0) B123(0) B124(0)
 B125(0) B126(0) B127(2) B128(2) B129(2) B130(2) B131(2) B132(0) B133(0)
 B134(2) B135(0) B136(0) B137(0) B138(0) B139(0) B140(0) B141(2) B142(0)
 B143(0) B144(2) B145(0) B146(4) B147(0) B148(2) B149(0) B150(0) B151(0)
 B152(0) B153(0) B154(0) B155(0) B156(2) B157(0) B158(0) B159(2) B160(2)
 B161(0) B162(2) B163(0) B164(2) B165(0) B166(0) B167(0) B168(0) B169(0)
 B170(0) B171(0) B172(0) B173(0) B174(0) B175(2) B176(2) B177(0) B178(2)
 B179(2) B180(0) B181(0) B182(0) B183(0) B184(0) B185(0) B186(0) B187(0)
 B188(0) B189(2) B190(0) B191(0) B192(2) B193(2) B194(2) B195(0) B196(0)
 B197(0) B198(0) B199(0) B200(0) B201(0) B202(0) B203(0) B204(2) B205(0)
 B206(0) B207(0) B208(2) B209(0) B210(0) B211(0) B212(0) B213(0) B214(0)
 B215(0) B216(0) B217(0) B218(0) B219(0) B220(0) B221(0) B222(0) B223(2)
 B224(0) B225(0) B226(0) B227(0) B228(0) B229(0) B230(0) B231(0) B232(0)
 B233(0) B234(0) B235(0) B236(0) B237(2) B238(0) B239(0) B240(0) B241(0)
 B242(0) B243(0) B244(0) B245(0) B246(0) B247(0) B248(0) B249(0) B250(0)
 B251(0) B252(0) B253(0) B254(0) B286(4) B287(4) B288(4) B289(4) B290(4)
 B291(4) B292(4) B293(4) B294(4) B295(4)
Generals
 I285(1)
End
